; Options: -in -smt2
(set-option :produce-unsat-assumptions true)

(declare-fun start!965 () Bool)

(assert start!965)

(declare-fun b!4161 () Bool)

(declare-fun res!3166 () Bool)

(declare-fun e!2192 () Bool)

(assert (=> b!4161 (=> (not res!3166) (not e!2192))))

(declare-fun carry!58 () (_ BitVec 32))

(declare-fun jz!53 () (_ BitVec 32))

(declare-fun i!252 () (_ BitVec 32))

(declare-datatypes ((array!300 0))(
  ( (array!301 (arr!131 (Array (_ BitVec 32) (_ BitVec 32))) (size!131 (_ BitVec 32))) )
))
(declare-fun iq!165 () array!300)

(assert (=> b!4161 (= res!3166 (and (bvsge (select (arr!131 iq!165) (bvsub jz!53 #b00000000000000000000000000000001)) #b00000000100000000000000000000000) (or (= carry!58 #b00000000000000000000000000000000) (= carry!58 #b00000000000000000000000000000001)) (bvslt i!252 (bvsub jz!53 #b00000000000000000000000000000001))))))

(declare-fun b!4162 () Bool)

(declare-fun e!2194 () Bool)

(declare-fun e!2195 () Bool)

(assert (=> b!4162 (= e!2194 e!2195)))

(declare-fun res!3160 () Bool)

(assert (=> b!4162 (=> (not res!3160) (not e!2195))))

(declare-fun lt!2819 () (_ BitVec 32))

(assert (=> b!4162 (= res!3160 (bvslt lt!2819 (bvsub jz!53 #b00000000000000000000000000000001)))))

(assert (=> b!4162 (= lt!2819 (bvadd i!252 #b00000000000000000000000000000001))))

(declare-fun res!3165 () Bool)

(declare-fun e!2196 () Bool)

(assert (=> start!965 (=> (not res!3165) (not e!2196))))

(assert (=> start!965 (= res!3165 (and (bvsle #b00000000000000000000000000000010 jz!53) (bvslt jz!53 #b00000000000000000000000000010011)))))

(assert (=> start!965 e!2196))

(assert (=> start!965 true))

(declare-fun array_inv!81 (array!300) Bool)

(assert (=> start!965 (array_inv!81 iq!165)))

(declare-datatypes ((array!302 0))(
  ( (array!303 (arr!132 (Array (_ BitVec 32) (_ FloatingPoint 11 53))) (size!132 (_ BitVec 32))) )
))
(declare-fun q!85 () array!302)

(declare-fun array_inv!82 (array!302) Bool)

(assert (=> start!965 (array_inv!82 q!85)))

(declare-fun b!4163 () Bool)

(declare-fun res!3163 () Bool)

(assert (=> b!4163 (=> (not res!3163) (not e!2192))))

(declare-fun iqInv!0 (array!300) Bool)

(assert (=> b!4163 (= res!3163 (iqInv!0 iq!165))))

(declare-fun b!4164 () Bool)

(assert (=> b!4164 (= e!2192 e!2194)))

(declare-fun res!3162 () Bool)

(assert (=> b!4164 (=> (not res!3162) (not e!2194))))

(declare-fun lt!2823 () (_ BitVec 32))

(declare-fun QInt!0 ((_ BitVec 32)) Bool)

(assert (=> b!4164 (= res!3162 (QInt!0 lt!2823))))

(assert (=> b!4164 (= lt!2823 (select (arr!131 iq!165) i!252))))

(declare-fun b!4165 () Bool)

(declare-fun e!2193 () Bool)

(assert (=> b!4165 (= e!2195 e!2193)))

(declare-fun res!3168 () Bool)

(assert (=> b!4165 (=> res!3168 e!2193)))

(declare-datatypes ((Unit!345 0))(
  ( (Unit!346) )
))
(declare-datatypes ((tuple4!178 0))(
  ( (tuple4!179 (_1!144 Unit!345) (_2!144 (_ BitVec 32)) (_3!132 array!300) (_4!89 (_ BitVec 32))) )
))
(declare-fun lt!2821 () tuple4!178)

(assert (=> b!4165 (= res!3168 (or (bvsgt #b00000000000000000000000000000000 (_2!144 lt!2821)) (bvsgt (_2!144 lt!2821) (bvsub jz!53 #b00000000000000000000000000000001))))))

(declare-fun computeModuloWhile!1 ((_ BitVec 32) array!302 (_ BitVec 32) array!300 (_ BitVec 32)) tuple4!178)

(assert (=> b!4165 (= lt!2821 (computeModuloWhile!1 jz!53 q!85 lt!2819 (array!301 (store (arr!131 iq!165) i!252 (ite (= carry!58 #b00000000000000000000000000000000) (ite (not (= lt!2823 #b00000000000000000000000000000000)) (bvsub #b00000001000000000000000000000000 lt!2823) #b00000000000000000000000000000000) (bvsub #b00000000111111111111111111111111 lt!2823))) (size!131 iq!165)) (ite (and (= carry!58 #b00000000000000000000000000000000) (not (= lt!2823 #b00000000000000000000000000000000))) #b00000000000000000000000000000001 carry!58)))))

(declare-fun b!4166 () Bool)

(assert (=> b!4166 (= e!2196 e!2192)))

(declare-fun res!3164 () Bool)

(assert (=> b!4166 (=> (not res!3164) (not e!2192))))

(declare-datatypes ((tuple4!180 0))(
  ( (tuple4!181 (_1!145 Unit!345) (_2!145 array!300) (_3!133 (_ BitVec 32)) (_4!90 (_ FloatingPoint 11 53))) )
))
(declare-fun lt!2824 () tuple4!180)

(declare-fun lt!2825 () (_ FloatingPoint 11 53))

(assert (=> b!4166 (= res!3164 (and (fp.leq (fp #b0 #b00000000000 #b0000000000000000000000000000000000000000000000000000) lt!2825) (fp.lt lt!2825 (fp #b0 #b10000000010 #b0000000000000000000000000000000000000000000000000000)) (bvsge (select (arr!131 (_2!145 lt!2824)) (bvsub jz!53 #b00000000000000000000000000000001)) #b00000000100000000000000000000000) (bvsle #b00000000000000000000000000000000 i!252) (bvsle i!252 (bvsub jz!53 #b00000000000000000000000000000001))))))

(assert (=> b!4166 (= lt!2825 (fp.sub roundNearestTiesToEven (_4!90 lt!2824) (fp.mul roundNearestTiesToEven (fp #b0 #b10000000010 #b0000000000000000000000000000000000000000000000000000) ((_ to_fp 11 53) roundNearestTiesToEven (ite (fp.isNaN (fp.mul roundNearestTiesToEven (_4!90 lt!2824) (fp #b0 #b01111111100 #b0000000000000000000000000000000000000000000000000000))) #b0000000000000000000000000000000000000000000000000000000000000000 (ite (fp.gt (fp.mul roundNearestTiesToEven (_4!90 lt!2824) (fp #b0 #b01111111100 #b0000000000000000000000000000000000000000000000000000)) ((_ to_fp 11 53) roundTowardZero #b0111111111111111111111111111111111111111111111111111111111111111)) #b0111111111111111111111111111111111111111111111111111111111111111 (ite (fp.lt (fp.mul roundNearestTiesToEven (_4!90 lt!2824) (fp #b0 #b01111111100 #b0000000000000000000000000000000000000000000000000000)) ((_ to_fp 11 53) roundTowardZero #b1000000000000000000000000000000000000000000000000000000000000000)) #b1000000000000000000000000000000000000000000000000000000000000000 ((_ fp.to_sbv 64) roundTowardZero (fp.mul roundNearestTiesToEven (_4!90 lt!2824) (fp #b0 #b01111111100 #b0000000000000000000000000000000000000000000000000000))))))))))))

(declare-fun e!2197 () tuple4!180)

(assert (=> b!4166 (= lt!2824 e!2197)))

(declare-fun c!707 () Bool)

(assert (=> b!4166 (= c!707 (bvsgt jz!53 #b00000000000000000000000000000000))))

(declare-fun lt!2822 () (_ FloatingPoint 11 53))

(assert (=> b!4166 (= lt!2822 (select (arr!132 q!85) jz!53))))

(declare-fun lt!2820 () array!300)

(assert (=> b!4166 (= lt!2820 (array!301 ((as const (Array (_ BitVec 32) (_ BitVec 32))) #b00000000000000000000000000000000) #b00000000000000000000000000010100))))

(declare-fun b!4167 () Bool)

(assert (=> b!4167 (= e!2193 (or (bvslt (select (arr!131 (_3!132 lt!2821)) (bvsub jz!53 #b00000000000000000000000000000001)) #b00000000100000000000000000000000) (and (not (= (_4!89 lt!2821) #b00000000000000000000000000000000)) (not (= (_4!89 lt!2821) #b00000000000000000000000000000001)))))))

(declare-fun b!4168 () Bool)

(declare-fun computeModuloWhile!0 ((_ BitVec 32) array!302 array!300 (_ BitVec 32) (_ FloatingPoint 11 53)) tuple4!180)

(assert (=> b!4168 (= e!2197 (computeModuloWhile!0 jz!53 q!85 lt!2820 jz!53 lt!2822))))

(declare-fun b!4169 () Bool)

(declare-fun res!3167 () Bool)

(assert (=> b!4169 (=> (not res!3167) (not e!2196))))

(declare-fun qInv!0 (array!302) Bool)

(assert (=> b!4169 (= res!3167 (qInv!0 q!85))))

(declare-fun b!4170 () Bool)

(declare-fun Unit!347 () Unit!345)

(assert (=> b!4170 (= e!2197 (tuple4!181 Unit!347 lt!2820 jz!53 lt!2822))))

(declare-fun b!4171 () Bool)

(declare-fun res!3161 () Bool)

(assert (=> b!4171 (=> res!3161 e!2193)))

(assert (=> b!4171 (= res!3161 (not (iqInv!0 (_3!132 lt!2821))))))

(assert (= (and start!965 res!3165) b!4169))

(assert (= (and b!4169 res!3167) b!4166))

(assert (= (and b!4166 c!707) b!4168))

(assert (= (and b!4166 (not c!707)) b!4170))

(assert (= (and b!4166 res!3164) b!4163))

(assert (= (and b!4163 res!3163) b!4161))

(assert (= (and b!4161 res!3166) b!4164))

(assert (= (and b!4164 res!3162) b!4162))

(assert (= (and b!4162 res!3160) b!4165))

(assert (= (and b!4165 (not res!3168)) b!4171))

(assert (= (and b!4171 (not res!3161)) b!4167))

(declare-fun m!4955 () Bool)

(assert (=> b!4166 m!4955))

(declare-fun m!4957 () Bool)

(assert (=> b!4166 m!4957))

(declare-fun m!4959 () Bool)

(assert (=> b!4168 m!4959))

(declare-fun m!4961 () Bool)

(assert (=> b!4161 m!4961))

(declare-fun m!4963 () Bool)

(assert (=> start!965 m!4963))

(declare-fun m!4965 () Bool)

(assert (=> start!965 m!4965))

(declare-fun m!4967 () Bool)

(assert (=> b!4167 m!4967))

(declare-fun m!4969 () Bool)

(assert (=> b!4165 m!4969))

(declare-fun m!4971 () Bool)

(assert (=> b!4165 m!4971))

(declare-fun m!4973 () Bool)

(assert (=> b!4163 m!4973))

(declare-fun m!4975 () Bool)

(assert (=> b!4164 m!4975))

(declare-fun m!4977 () Bool)

(assert (=> b!4164 m!4977))

(declare-fun m!4979 () Bool)

(assert (=> b!4171 m!4979))

(declare-fun m!4981 () Bool)

(assert (=> b!4169 m!4981))

(check-sat (not b!4165) (not b!4171) (not b!4164) (not start!965) (not b!4169) (not b!4168) (not b!4163))
(check-sat)
(get-model)

(declare-fun d!1771 () Bool)

(declare-fun res!3171 () Bool)

(declare-fun e!2202 () Bool)

(assert (=> d!1771 (=> (not res!3171) (not e!2202))))

(assert (=> d!1771 (= res!3171 (= (size!131 (_3!132 lt!2821)) #b00000000000000000000000000010100))))

(assert (=> d!1771 (= (iqInv!0 (_3!132 lt!2821)) e!2202)))

(declare-fun b!4174 () Bool)

(declare-fun lambda!176 () Int)

(declare-fun all20Int!0 (array!300 Int) Bool)

(assert (=> b!4174 (= e!2202 (all20Int!0 (_3!132 lt!2821) lambda!176))))

(assert (= (and d!1771 res!3171) b!4174))

(declare-fun m!4983 () Bool)

(assert (=> b!4174 m!4983))

(assert (=> b!4171 d!1771))

(declare-fun d!1773 () Bool)

(declare-fun res!3174 () Bool)

(declare-fun e!2205 () Bool)

(assert (=> d!1773 (=> (not res!3174) (not e!2205))))

(assert (=> d!1773 (= res!3174 (= (size!132 q!85) #b00000000000000000000000000010100))))

(assert (=> d!1773 (= (qInv!0 q!85) e!2205)))

(declare-fun b!4177 () Bool)

(declare-fun lambda!179 () Int)

(declare-fun all20!0 (array!302 Int) Bool)

(assert (=> b!4177 (= e!2205 (all20!0 q!85 lambda!179))))

(assert (= (and d!1773 res!3174) b!4177))

(declare-fun m!4985 () Bool)

(assert (=> b!4177 m!4985))

(assert (=> b!4169 d!1773))

(declare-fun bs!692 () Bool)

(declare-fun b!4178 () Bool)

(assert (= bs!692 (and b!4178 b!4174)))

(declare-fun lambda!180 () Int)

(assert (=> bs!692 (= lambda!180 lambda!176)))

(declare-fun d!1775 () Bool)

(declare-fun res!3175 () Bool)

(declare-fun e!2206 () Bool)

(assert (=> d!1775 (=> (not res!3175) (not e!2206))))

(assert (=> d!1775 (= res!3175 (= (size!131 iq!165) #b00000000000000000000000000010100))))

(assert (=> d!1775 (= (iqInv!0 iq!165) e!2206)))

(assert (=> b!4178 (= e!2206 (all20Int!0 iq!165 lambda!180))))

(assert (= (and d!1775 res!3175) b!4178))

(declare-fun m!4987 () Bool)

(assert (=> b!4178 m!4987))

(assert (=> b!4163 d!1775))

(declare-fun lt!2839 () (_ FloatingPoint 11 53))

(declare-fun lt!2837 () array!300)

(declare-fun b!4191 () Bool)

(declare-fun lt!2836 () (_ BitVec 32))

(declare-fun e!2213 () tuple4!180)

(declare-fun Unit!348 () Unit!345)

(assert (=> b!4191 (= e!2213 (tuple4!181 Unit!348 lt!2837 lt!2836 lt!2839))))

(declare-fun b!4192 () Bool)

(declare-fun e!2215 () Bool)

(declare-fun lt!2840 () tuple4!180)

(assert (=> b!4192 (= e!2215 (bvsle (_3!133 lt!2840) #b00000000000000000000000000000000))))

(declare-fun b!4193 () Bool)

(declare-fun e!2214 () Bool)

(assert (=> b!4193 (= e!2214 (bvsgt jz!53 #b00000000000000000000000000000000))))

(declare-fun d!1777 () Bool)

(assert (=> d!1777 e!2215))

(declare-fun res!3184 () Bool)

(assert (=> d!1777 (=> (not res!3184) (not e!2215))))

(assert (=> d!1777 (= res!3184 (and true true (bvsle #b00000000000000000000000000000000 (_3!133 lt!2840)) (bvsle (_3!133 lt!2840) jz!53) (fp.leq (fp #b0 #b00000000000 #b0000000000000000000000000000000000000000000000000000) (_4!90 lt!2840)) (fp.leq (_4!90 lt!2840) (fp #b0 #b10000110001 #b0100000000000000000000010011111111111111111111111100))))))

(assert (=> d!1777 (= lt!2840 e!2213)))

(declare-fun c!710 () Bool)

(assert (=> d!1777 (= c!710 (bvsgt lt!2836 #b00000000000000000000000000000000))))

(assert (=> d!1777 (= lt!2836 (bvsub jz!53 #b00000000000000000000000000000001))))

(declare-fun lt!2838 () (_ FloatingPoint 11 53))

(assert (=> d!1777 (= lt!2839 (fp.add roundNearestTiesToEven (select (arr!132 q!85) (bvsub jz!53 #b00000000000000000000000000000001)) lt!2838))))

(assert (=> d!1777 (= lt!2837 (array!301 (store (arr!131 lt!2820) (bvsub jz!53 jz!53) (ite (fp.isNaN (fp.sub roundNearestTiesToEven lt!2822 (fp.mul roundNearestTiesToEven (fp #b0 #b10000010111 #b0000000000000000000000000000000000000000000000000000) lt!2838))) #b00000000000000000000000000000000 (ite (fp.gt (fp.sub roundNearestTiesToEven lt!2822 (fp.mul roundNearestTiesToEven (fp #b0 #b10000010111 #b0000000000000000000000000000000000000000000000000000) lt!2838)) ((_ to_fp 11 53) roundTowardZero #b01111111111111111111111111111111)) #b01111111111111111111111111111111 (ite (fp.lt (fp.sub roundNearestTiesToEven lt!2822 (fp.mul roundNearestTiesToEven (fp #b0 #b10000010111 #b0000000000000000000000000000000000000000000000000000) lt!2838)) ((_ to_fp 11 53) roundTowardZero #b10000000000000000000000000000000)) #b10000000000000000000000000000000 ((_ fp.to_sbv 32) roundTowardZero (fp.sub roundNearestTiesToEven lt!2822 (fp.mul roundNearestTiesToEven (fp #b0 #b10000010111 #b0000000000000000000000000000000000000000000000000000) lt!2838))))))) (size!131 lt!2820)))))

(assert (=> d!1777 (= lt!2838 ((_ to_fp 11 53) roundNearestTiesToEven (ite (fp.isNaN (fp.mul roundNearestTiesToEven (fp #b0 #b01111100111 #b0000000000000000000000000000000000000000000000000000) lt!2822)) #b00000000000000000000000000000000 (ite (fp.gt (fp.mul roundNearestTiesToEven (fp #b0 #b01111100111 #b0000000000000000000000000000000000000000000000000000) lt!2822) ((_ to_fp 11 53) roundTowardZero #b01111111111111111111111111111111)) #b01111111111111111111111111111111 (ite (fp.lt (fp.mul roundNearestTiesToEven (fp #b0 #b01111100111 #b0000000000000000000000000000000000000000000000000000) lt!2822) ((_ to_fp 11 53) roundTowardZero #b10000000000000000000000000000000)) #b10000000000000000000000000000000 ((_ fp.to_sbv 32) roundTowardZero (fp.mul roundNearestTiesToEven (fp #b0 #b01111100111 #b0000000000000000000000000000000000000000000000000000) lt!2822)))))))))

(assert (=> d!1777 e!2214))

(declare-fun res!3187 () Bool)

(assert (=> d!1777 (=> (not res!3187) (not e!2214))))

(assert (=> d!1777 (= res!3187 (and (bvsle #b00000000000000000000000000000000 jz!53) (bvsle jz!53 jz!53) (fp.leq (fp #b0 #b00000000000 #b0000000000000000000000000000000000000000000000000000) lt!2822) (fp.leq lt!2822 (fp #b0 #b10000110001 #b0100000000000000000000010011111111111111111111111100))))))

(assert (=> d!1777 (= (computeModuloWhile!0 jz!53 q!85 lt!2820 jz!53 lt!2822) lt!2840)))

(declare-fun b!4194 () Bool)

(declare-fun res!3185 () Bool)

(assert (=> b!4194 (=> (not res!3185) (not e!2215))))

(assert (=> b!4194 (= res!3185 (iqInv!0 (_2!145 lt!2840)))))

(declare-fun b!4195 () Bool)

(declare-fun res!3186 () Bool)

(assert (=> b!4195 (=> (not res!3186) (not e!2214))))

(assert (=> b!4195 (= res!3186 (iqInv!0 lt!2820))))

(declare-fun b!4196 () Bool)

(assert (=> b!4196 (= e!2213 (computeModuloWhile!0 jz!53 q!85 lt!2837 lt!2836 lt!2839))))

(assert (= (and d!1777 res!3187) b!4195))

(assert (= (and b!4195 res!3186) b!4193))

(assert (= (and d!1777 c!710) b!4196))

(assert (= (and d!1777 (not c!710)) b!4191))

(assert (= (and d!1777 res!3184) b!4194))

(assert (= (and b!4194 res!3185) b!4192))

(declare-fun m!4989 () Bool)

(assert (=> d!1777 m!4989))

(declare-fun m!4991 () Bool)

(assert (=> d!1777 m!4991))

(declare-fun m!4993 () Bool)

(assert (=> b!4194 m!4993))

(declare-fun m!4995 () Bool)

(assert (=> b!4195 m!4995))

(declare-fun m!4997 () Bool)

(assert (=> b!4196 m!4997))

(assert (=> b!4168 d!1777))

(declare-fun b!4217 () Bool)

(declare-fun res!3205 () Bool)

(declare-fun e!2224 () Bool)

(assert (=> b!4217 (=> (not res!3205) (not e!2224))))

(declare-fun lt!2861 () tuple4!178)

(declare-fun lt!2865 () (_ BitVec 32))

(assert (=> b!4217 (= res!3205 (bvsge (select (arr!131 (_3!132 lt!2861)) lt!2865) #b00000000100000000000000000000000))))

(assert (=> b!4217 (and (bvsge lt!2865 #b00000000000000000000000000000000) (bvslt lt!2865 (size!131 (_3!132 lt!2861))))))

(assert (=> b!4217 (= lt!2865 (bvsub jz!53 #b00000000000000000000000000000001))))

(assert (=> b!4217 (or (= (bvand jz!53 #b10000000000000000000000000000000) #b00000000000000000000000000000000) (= (bvand jz!53 #b10000000000000000000000000000000) (bvand (bvsub jz!53 #b00000000000000000000000000000001) #b10000000000000000000000000000000)))))

(declare-fun b!4218 () Bool)

(assert (=> b!4218 (= e!2224 (bvsge (_2!144 lt!2861) (bvsub jz!53 #b00000000000000000000000000000001)))))

(assert (=> b!4218 (or (= (bvand jz!53 #b10000000000000000000000000000000) #b00000000000000000000000000000000) (= (bvand jz!53 #b10000000000000000000000000000000) (bvand (bvsub jz!53 #b00000000000000000000000000000001) #b10000000000000000000000000000000)))))

(declare-fun b!4219 () Bool)

(declare-fun res!3201 () Bool)

(declare-fun e!2226 () Bool)

(assert (=> b!4219 (=> (not res!3201) (not e!2226))))

(assert (=> b!4219 (= res!3201 (iqInv!0 (array!301 (store (arr!131 iq!165) i!252 (ite (= carry!58 #b00000000000000000000000000000000) (ite (not (= lt!2823 #b00000000000000000000000000000000)) (bvsub #b00000001000000000000000000000000 lt!2823) #b00000000000000000000000000000000) (bvsub #b00000000111111111111111111111111 lt!2823))) (size!131 iq!165))))))

(declare-fun e!2225 () tuple4!178)

(declare-fun lt!2866 () (_ BitVec 32))

(declare-fun lt!2860 () array!300)

(declare-fun b!4220 () Bool)

(declare-fun lt!2867 () (_ BitVec 32))

(declare-fun Unit!349 () Unit!345)

(assert (=> b!4220 (= e!2225 (tuple4!179 Unit!349 lt!2867 lt!2860 lt!2866))))

(declare-fun b!4221 () Bool)

(declare-fun lt!2864 () (_ FloatingPoint 11 53))

(declare-fun lt!2862 () array!300)

(declare-fun e!2227 () tuple4!180)

(assert (=> b!4221 (= e!2227 (computeModuloWhile!0 jz!53 q!85 lt!2862 jz!53 lt!2864))))

(declare-fun b!4222 () Bool)

(assert (=> b!4222 (= e!2226 (and (bvsge (select (arr!131 (array!301 (store (arr!131 iq!165) i!252 (ite (= carry!58 #b00000000000000000000000000000000) (ite (not (= lt!2823 #b00000000000000000000000000000000)) (bvsub #b00000001000000000000000000000000 lt!2823) #b00000000000000000000000000000000) (bvsub #b00000000111111111111111111111111 lt!2823))) (size!131 iq!165))) (bvsub jz!53 #b00000000000000000000000000000001)) #b00000000100000000000000000000000) (or (= (ite (and (= carry!58 #b00000000000000000000000000000000) (not (= lt!2823 #b00000000000000000000000000000000))) #b00000000000000000000000000000001 carry!58) #b00000000000000000000000000000000) (= (ite (and (= carry!58 #b00000000000000000000000000000000) (not (= lt!2823 #b00000000000000000000000000000000))) #b00000000000000000000000000000001 carry!58) #b00000000000000000000000000000001)) (bvslt lt!2819 (bvsub jz!53 #b00000000000000000000000000000001))))))

(declare-fun d!1779 () Bool)

(assert (=> d!1779 e!2224))

(declare-fun res!3202 () Bool)

(assert (=> d!1779 (=> (not res!3202) (not e!2224))))

(assert (=> d!1779 (= res!3202 (and (or (bvsgt #b00000000000000000000000000000000 (_2!144 lt!2861)) (= (bvand jz!53 #b10000000000000000000000000000000) #b00000000000000000000000000000000) (= (bvand jz!53 #b10000000000000000000000000000000) (bvand (bvsub jz!53 #b00000000000000000000000000000001) #b10000000000000000000000000000000))) (bvsle #b00000000000000000000000000000000 (_2!144 lt!2861)) (bvsle (_2!144 lt!2861) (bvsub jz!53 #b00000000000000000000000000000001))))))

(assert (=> d!1779 (= lt!2861 e!2225)))

(declare-fun c!716 () Bool)

(assert (=> d!1779 (= c!716 (bvslt lt!2867 (bvsub jz!53 #b00000000000000000000000000000001)))))

(assert (=> d!1779 (= lt!2867 (bvadd lt!2819 #b00000000000000000000000000000001))))

(declare-fun lt!2863 () (_ BitVec 32))

(assert (=> d!1779 (= lt!2866 (ite (and (= (ite (and (= carry!58 #b00000000000000000000000000000000) (not (= lt!2823 #b00000000000000000000000000000000))) #b00000000000000000000000000000001 carry!58) #b00000000000000000000000000000000) (not (= lt!2863 #b00000000000000000000000000000000))) #b00000000000000000000000000000001 (ite (and (= carry!58 #b00000000000000000000000000000000) (not (= lt!2823 #b00000000000000000000000000000000))) #b00000000000000000000000000000001 carry!58)))))

(assert (=> d!1779 (= lt!2860 (array!301 (store (arr!131 (array!301 (store (arr!131 iq!165) i!252 (ite (= carry!58 #b00000000000000000000000000000000) (ite (not (= lt!2823 #b00000000000000000000000000000000)) (bvsub #b00000001000000000000000000000000 lt!2823) #b00000000000000000000000000000000) (bvsub #b00000000111111111111111111111111 lt!2823))) (size!131 iq!165))) lt!2819 (ite (= (ite (and (= carry!58 #b00000000000000000000000000000000) (not (= lt!2823 #b00000000000000000000000000000000))) #b00000000000000000000000000000001 carry!58) #b00000000000000000000000000000000) (ite (not (= lt!2863 #b00000000000000000000000000000000)) (bvsub #b00000001000000000000000000000000 lt!2863) #b00000000000000000000000000000000) (bvsub #b00000000111111111111111111111111 lt!2863))) (size!131 (array!301 (store (arr!131 iq!165) i!252 (ite (= carry!58 #b00000000000000000000000000000000) (ite (not (= lt!2823 #b00000000000000000000000000000000)) (bvsub #b00000001000000000000000000000000 lt!2823) #b00000000000000000000000000000000) (bvsub #b00000000111111111111111111111111 lt!2823))) (size!131 iq!165)))))))

(assert (=> d!1779 (= lt!2863 (select (arr!131 (array!301 (store (arr!131 iq!165) i!252 (ite (= carry!58 #b00000000000000000000000000000000) (ite (not (= lt!2823 #b00000000000000000000000000000000)) (bvsub #b00000001000000000000000000000000 lt!2823) #b00000000000000000000000000000000) (bvsub #b00000000111111111111111111111111 lt!2823))) (size!131 iq!165))) lt!2819))))

(assert (=> d!1779 e!2226))

(declare-fun res!3203 () Bool)

(assert (=> d!1779 (=> (not res!3203) (not e!2226))))

(assert (=> d!1779 (= res!3203 (and (bvsle #b00000000000000000000000000000000 lt!2819) (bvsle lt!2819 (bvsub jz!53 #b00000000000000000000000000000001))))))

(declare-fun lt!2859 () tuple4!180)

(assert (=> d!1779 (= lt!2859 e!2227)))

(declare-fun c!715 () Bool)

(assert (=> d!1779 (= c!715 (bvsgt jz!53 #b00000000000000000000000000000000))))

(assert (=> d!1779 (= lt!2864 (select (arr!132 q!85) jz!53))))

(assert (=> d!1779 (= lt!2862 (array!301 ((as const (Array (_ BitVec 32) (_ BitVec 32))) #b00000000000000000000000000000000) #b00000000000000000000000000010100))))

(assert (=> d!1779 (= (computeModuloWhile!1 jz!53 q!85 lt!2819 (array!301 (store (arr!131 iq!165) i!252 (ite (= carry!58 #b00000000000000000000000000000000) (ite (not (= lt!2823 #b00000000000000000000000000000000)) (bvsub #b00000001000000000000000000000000 lt!2823) #b00000000000000000000000000000000) (bvsub #b00000000111111111111111111111111 lt!2823))) (size!131 iq!165)) (ite (and (= carry!58 #b00000000000000000000000000000000) (not (= lt!2823 #b00000000000000000000000000000000))) #b00000000000000000000000000000001 carry!58)) lt!2861)))

(declare-fun b!4223 () Bool)

(assert (=> b!4223 (= e!2225 (computeModuloWhile!1 jz!53 q!85 lt!2867 lt!2860 lt!2866))))

(declare-fun b!4224 () Bool)

(declare-fun res!3204 () Bool)

(assert (=> b!4224 (=> (not res!3204) (not e!2224))))

(assert (=> b!4224 (= res!3204 (or (= (_4!89 lt!2861) #b00000000000000000000000000000000) (= (_4!89 lt!2861) #b00000000000000000000000000000001)))))

(declare-fun b!4225 () Bool)

(declare-fun Unit!350 () Unit!345)

(assert (=> b!4225 (= e!2227 (tuple4!181 Unit!350 lt!2862 jz!53 lt!2864))))

(declare-fun b!4226 () Bool)

(declare-fun res!3200 () Bool)

(assert (=> b!4226 (=> (not res!3200) (not e!2224))))

(assert (=> b!4226 (= res!3200 (iqInv!0 (_3!132 lt!2861)))))

(assert (= (and d!1779 c!715) b!4221))

(assert (= (and d!1779 (not c!715)) b!4225))

(assert (= (and d!1779 res!3203) b!4219))

(assert (= (and b!4219 res!3201) b!4222))

(assert (= (and d!1779 c!716) b!4223))

(assert (= (and d!1779 (not c!716)) b!4220))

(assert (= (and d!1779 res!3202) b!4226))

(assert (= (and b!4226 res!3200) b!4217))

(assert (= (and b!4217 res!3205) b!4224))

(assert (= (and b!4224 res!3204) b!4218))

(declare-fun m!4999 () Bool)

(assert (=> b!4222 m!4999))

(declare-fun m!5001 () Bool)

(assert (=> b!4221 m!5001))

(declare-fun m!5003 () Bool)

(assert (=> b!4223 m!5003))

(declare-fun m!5005 () Bool)

(assert (=> d!1779 m!5005))

(declare-fun m!5007 () Bool)

(assert (=> d!1779 m!5007))

(assert (=> d!1779 m!4957))

(declare-fun m!5009 () Bool)

(assert (=> b!4217 m!5009))

(declare-fun m!5011 () Bool)

(assert (=> b!4219 m!5011))

(declare-fun m!5013 () Bool)

(assert (=> b!4226 m!5013))

(assert (=> b!4165 d!1779))

(declare-fun d!1781 () Bool)

(assert (=> d!1781 (= (array_inv!81 iq!165) (bvsge (size!131 iq!165) #b00000000000000000000000000000000))))

(assert (=> start!965 d!1781))

(declare-fun d!1783 () Bool)

(assert (=> d!1783 (= (array_inv!82 q!85) (bvsge (size!132 q!85) #b00000000000000000000000000000000))))

(assert (=> start!965 d!1783))

(declare-fun d!1785 () Bool)

(assert (=> d!1785 (= (QInt!0 lt!2823) (and (bvsle #b00000000000000000000000000000000 lt!2823) (bvsle lt!2823 #b00000000111111111111111111111111)))))

(assert (=> b!4164 d!1785))

(check-sat (not b!4177) (not b!4196) (not b!4219) (not b!4194) (not b!4174) (not b!4223) (not b!4195) (not b!4178) (not b!4221) (not b!4226))
(check-sat)
